NAME: random-95-32169
TYPE: TSP
COMMENT: size=95 seed=32169
DIMENSION: 192
EDGE_WEIGHT_TYPE: EUC_2D
NODE_COORD_SECTION
+0 383 624
-0 383 624
+1 884 147
-1 25 196
+2 743 825
-2 968 162
+3 191 634
-3 610 774
+4 533 392
-4 862 378
+5 997 37
-5 759 176
+6 300 27
-6 905 337
+7 750 883
-7 645 801
+8 554 801
-8 577 951
+9 354 377
-9 491 205
+10 361 839
-10 608 386
+11 139 219
-11 139 759
+12 302 747
-12 90 761
+13 396 115
-13 513 478
+14 406 352
-14 114 251
+15 671 391
-15 405 542
+16 236 327
-16 146 6
+17 796 993
-17 133 810
+18 604 985
-18 658 386
+19 957 267
-19 266 989
+20 825 182
-20 331 207
+21 663 558
-21 844 531
+22 522 514
-22 625 249
+23 68 441
-23 383 196
+24 372 663
-24 61 122
+25 921 949
-25 566 740
+26 738 819
-26 549 332
+27 462 131
-27 670 102
+28 425 437
-28 615 73
+29 65 363
-29 415 463
+30 171 182
-30 274 783
+31 747 994
-31 460 671
+32 121 120
-32 347 213
+33 966 42
-33 706 365
+34 283 313
-34 216 222
+35 709 541
-35 892 678
+36 847 107
-36 546 467
+37 445 409
-37 499 263
+38 117 936
-38 683 113
+39 669 790
-39 886 696
+40 903 592
-40 16 44
+41 158 651
-41 987 140
+42 941 493
-42 854 556
+43 992 323
-43 594 166
+44 370 9
-44 416 81
+45 844 823
-45 734 854
+46 329 237
-46 757 932
+47 525 609
-47 816 20
+48 57 535
-48 467 3
+49 310 821
-49 347 425
+50 775 772
-50 757 730
+51 500 106
-51 143 21
+52 492 347
-52 313 337
+53 140 165
-53 817 72
+54 126 697
-54 189 367
+55 821 156
-55 267 385
+56 973 175
-56 440 759
+57 871 780
-57 830 383
+58 680 677
-58 506 919
+59 132 379
-59 685 229
+60 941 80
-60 615 511
+61 85 650
-61 664 425
+62 627 870
-62 343 706
+63 133 634
-63 270 742
+64 422 415
-64 598 184
+65 976 249
-65 994 457
+66 682 643
-66 413 697
+67 824 429
-67 963 518
+68 773 244
-68 214 254
+69 982 224
-69 220 178
+70 311 120
-70 636 730
+71 226 646
-71 729 856
+72 431 701
-72 712 923
+73 797 643
-73 985 540
+74 111 972
-74 862 542
+75 98 869
-75 31 582
+76 295 168
-76 136 827
+77 440 43
-77 638 649
+78 887 339
-78 647 696
+79 486 112
-79 418 982
+80 244 489
-80 993 124
+81 289 484
-81 565 700
+82 337 599
-82 619 414
+83 839 751
-83 579 828
+84 278 741
-84 217 347
+85 450 179
-85 191 888
+86 741 245
-86 460 626
+87 347 116
-87 605 341
+88 95 986
-88 928 456
+89 601 45
-89 579 289
+90 422 678
-90 786 766
+91 315 101
-91 571 179
+92 516 804
-92 15 740
+93 17 695
-93 565 144
+94 424 408
-94 711 201
+95 725 694
-95 416 83
PRECEDENCE_SECTION
+0 -0
+1 -1
+2 -2
+3 -3
+4 -4
+5 -5
+6 -6
+7 -7
+8 -8
+9 -9
+10 -10
+11 -11
+12 -12
+13 -13
+14 -14
+15 -15
+16 -16
+17 -17
+18 -18
+19 -19
+20 -20
+21 -21
+22 -22
+23 -23
+24 -24
+25 -25
+26 -26
+27 -27
+28 -28
+29 -29
+30 -30
+31 -31
+32 -32
+33 -33
+34 -34
+35 -35
+36 -36
+37 -37
+38 -38
+39 -39
+40 -40
+41 -41
+42 -42
+43 -43
+44 -44
+45 -45
+46 -46
+47 -47
+48 -48
+49 -49
+50 -50
+51 -51
+52 -52
+53 -53
+54 -54
+55 -55
+56 -56
+57 -57
+58 -58
+59 -59
+60 -60
+61 -61
+62 -62
+63 -63
+64 -64
+65 -65
+66 -66
+67 -67
+68 -68
+69 -69
+70 -70
+71 -71
+72 -72
+73 -73
+74 -74
+75 -75
+76 -76
+77 -77
+78 -78
+79 -79
+80 -80
+81 -81
+82 -82
+83 -83
+84 -84
+85 -85
+86 -86
+87 -87
+88 -88
+89 -89
+90 -90
+91 -91
+92 -92
+93 -93
+94 -94
+95 -95
EOF
